(set-info :smt-lib-version 2.6)
(set-logic QF_ALIA)
(set-info :notes "Adapted for Array Sum evaluation.
Base file: qlock.induction.5.smt2")
(set-info :source |
Unbounded version of the queue lock algorithm.
|)
(set-info :category "industrial")
(declare-fun x_0 () (Array Int Int))
(declare-fun x_1 () Int)
(declare-fun x_2 () Int)
(declare-fun x_3 () (Array Int Int))
(declare-fun x_4 () (Array Int Int))
(declare-fun x_5 () (Array Int Int))
(declare-fun x_6 () (Array Int Int))
(declare-fun x_7 () (Array Int Int))
(declare-fun x_8 () Int)
(declare-fun x_9 () Int)
(declare-fun x_10 () (Array Int Int))
(declare-fun x_11 () Int)
(declare-fun x_12 () Bool)
(declare-fun x_13 () Bool)
(declare-fun x_14 () Int)
(declare-fun x_15 () Int)
(declare-fun x_16 () Int)
(declare-fun x_17 () Int)
(declare-fun x_18 () Int)
(declare-fun x_19 () Int)
(declare-fun x_20 () Int)
(declare-fun x_21 () Int)
(declare-fun x_22 () Int)
(declare-fun x_23 () Int)
(declare-fun x_24 () Int)
(declare-fun x_25 () Int)
(declare-fun x_26 () (Array Int Int))
(declare-fun x_27 () Int)
(declare-fun x_28 () Bool)
(declare-fun x_29 () Int)
(declare-fun x_30 () Int)
(declare-fun x_31 () Int)
(declare-fun x_32 () Int)
(declare-fun x_33 () Int)
(declare-fun x_34 () Int)
(declare-fun x_35 () Int)
(declare-fun x_36 () Int)
(declare-fun x_37 () Int)
(declare-fun x_38 () Int)
(declare-fun x_39 () (Array Int Int))
(declare-fun x_40 () Int)
(declare-fun x_41 () Bool)
(declare-fun x_42 () Int)
(declare-fun x_43 () Int)
(declare-fun x_44 () Int)
(declare-fun x_45 () Int)
(declare-fun x_46 () Int)
(declare-fun x_47 () Int)
(declare-fun x_48 () Int)
(declare-fun x_49 () Int)
(declare-fun x_50 () Int)
(declare-fun x_51 () Int)
(declare-fun x_52 () (Array Int Int))
(declare-fun x_53 () Int)
(declare-fun x_54 () Bool)
(declare-fun x_55 () Int)
(declare-fun x_56 () Int)
(declare-fun x_57 () Int)
(declare-fun x_58 () Int)
(declare-fun x_59 () Int)
(declare-fun x_60 () Int)
(declare-fun x_61 () Int)
(declare-fun x_62 () Int)
(declare-fun x_63 () Int)
(declare-fun x_64 () Int)
(declare-fun x_65 () (Array Int Int))
(declare-fun x_66 () Int)
(declare-fun x_67 () Bool)
(declare-fun x_68 () Int)
(declare-fun x_69 () Int)
(declare-fun x_70 () Int)
(declare-fun x_71 () Int)
(declare-fun x_72 () Int)
(declare-fun x_73 () (Array Int Int))
(declare-fun x_74 () Int)
(declare-fun x_75 () Int)
(declare-fun x_76 () Int)
(declare-fun x_77 () Int)
(declare-fun x_78 () Int)
(declare-fun x_79 () Int)
(declare-fun x_80 () Int)
(declare-fun x_81 () Int)
(declare-fun x_82 () Int)
(declare-fun x_83 () Int)
(declare-fun x_84 () Int)
(declare-fun x_85 () Int)
(declare-fun x_86 () Int)
(declare-fun x_87 () Int)
(declare-fun x_88 () Int)
(declare-fun x_89 () Int)
(declare-fun x_90 () Int)
(declare-fun x_91 () Int)
(declare-fun x_92 () Int)
(declare-fun x_93 () Int)
(declare-fun x_94 () Int)
(declare-fun x_95 () Int)
(declare-fun x_96 () Int)
(declare-fun x_97 () Int)
(declare-fun x_98 () Int)
(declare-fun x_99 () Int)
(declare-fun x_100 () Int)
(declare-fun x_101 () Int)
(declare-fun x_102 () Int)
(declare-fun x_103 () Int)
(declare-fun x_104 () Int)
(declare-fun x_105 () Int)
(declare-fun x_106 () Int)
(declare-fun x_107 () Int)
(declare-fun x_108 () Int)
(declare-fun x_109 () Int)
(assert (let ((?v_23 (= x_10 x_7)) (?v_20 (= x_11 x_8)) (?v_21 (= x_12 x_13)) (?v_24 (= x_14 x_15)) (?v_22 (not (<= x_15 x_8))) (?v_18 (= x_26 x_10)) (?v_15 (= x_27 x_11)) (?v_16 (= x_28 x_12)) (?v_19 (= x_29 x_14)) (?v_17 (not (<= x_14 x_11))) (?v_13 (= x_39 x_26)) (?v_10 (= x_40 x_27)) (?v_11 (= x_41 x_28)) (?v_14 (= x_42 x_29)) (?v_12 (not (<= x_29 x_27))) (?v_8 (= x_52 x_39)) (?v_5 (= x_53 x_40)) (?v_6 (= x_54 x_41)) (?v_9 (= x_55 x_42)) (?v_7 (not (<= x_42 x_40))) (?v_3 (= x_65 x_52)) (?v_0 (= x_66 x_53)) (?v_1 (= x_67 x_54)) (?v_4 (= x_68 x_55)) (?v_2 (not (<= x_55 x_53)))) (and (and (and (and (and (and (and (and (and (and (and (and (and (and (and (and (and (and (and (and (and (and (and (and (and (and (and (and (and (and (and (and (and (and (and (and (and (and (and (and (and (and (and (and (and (and (and (and (and (and (and (and (and (and (not (= x_2 x_1)) (= x_78 (select x_6 x_1))) (= x_79 (select x_6 x_2))) (or (not (= x_78 3)) (not (= x_79 3)))) (= x_80 (select x_5 x_1))) (= x_81 (select x_5 x_2))) (or (not (= x_80 3)) (not (= x_81 3)))) (= x_82 (select x_4 x_1))) (= x_83 (select x_4 x_2))) (or (not (= x_82 3)) (not (= x_83 3)))) (= x_84 (select x_3 x_1))) (= x_85 (select x_3 x_2))) (or (not (= x_84 3)) (not (= x_85 3)))) (= x_86 (select x_0 x_1))) (= x_87 (select x_0 x_2))) (or (not (= x_86 3)) (not (= x_87 3)))) (= x_88 (select x_7 x_8))) (= x_9 x_88)) (= x_89 (select x_10 x_11))) (= x_25 x_89)) (= x_90 (select x_26 x_27))) (= x_38 x_90)) (= x_91 (select x_39 x_40))) (= x_51 x_91)) (= x_92 (select x_52 x_53))) (= x_64 x_92)) (= x_69 (+ x_56 1))) (= x_93 (select x_6 x_71))) (= x_94 (select x_6 x_74))) (= x_95 (select x_6 x_76))) (or (or (or (and (and (and (and (and (and (and (= x_70 0) (= x_68 (+ x_55 1))) ?v_0) ?v_1) (= x_72 x_71)) (= x_93 1)) (= x_73 (store x_6 x_71 2))) (= x_65 (store x_52 x_55 x_71))) (and (and (and (and (and (and (and (and (and (= x_70 1) ?v_2) ?v_0) ?v_1) ?v_3) ?v_4) (= x_75 x_74)) (= x_94 2)) (= x_64 x_74)) (= x_73 (store x_6 x_74 3)))) (and (and (and (and (and (and (and (and (and (= x_70 2) ?v_2) (= x_66 (+ x_53 1))) ?v_1) ?v_3) ?v_4) (= x_77 x_76)) (= x_95 3)) (or (not (<= x_56 12)) (= x_64 x_76))) (= x_73 (store x_6 x_76 1)))) (and (and (and (and (and (= x_70 3) ?v_3) ?v_0) ?v_1) (= x_73 x_6)) ?v_4))) (= x_56 (+ x_43 1))) (= x_96 (select x_5 x_58))) (= x_97 (select x_5 x_60))) (= x_98 (select x_5 x_62))) (or (or (or (and (and (and (and (and (and (and (= x_57 0) (= x_55 (+ x_42 1))) ?v_5) ?v_6) (= x_59 x_58)) (= x_96 1)) (= x_6 (store x_5 x_58 2))) (= x_52 (store x_39 x_42 x_58))) (and (and (and (and (and (and (and (and (and (= x_57 1) ?v_7) ?v_5) ?v_6) ?v_8) ?v_9) (= x_61 x_60)) (= x_97 2)) (= x_51 x_60)) (= x_6 (store x_5 x_60 3)))) (and (and (and (and (and (and (and (and (and (= x_57 2) ?v_7) (= x_53 (+ x_40 1))) ?v_6) ?v_8) ?v_9) (= x_63 x_62)) (= x_98 3)) (or (not (<= x_43 12)) (= x_51 x_62))) (= x_6 (store x_5 x_62 1)))) (and (and (and (and (and (= x_57 3) ?v_8) ?v_5) ?v_6) (= x_6 x_5)) ?v_9))) (= x_43 (+ x_30 1))) (= x_99 (select x_4 x_45))) (= x_100 (select x_4 x_47))) (= x_101 (select x_4 x_49))) (or (or (or (and (and (and (and (and (and (and (= x_44 0) (= x_42 (+ x_29 1))) ?v_10) ?v_11) (= x_46 x_45)) (= x_99 1)) (= x_5 (store x_4 x_45 2))) (= x_39 (store x_26 x_29 x_45))) (and (and (and (and (and (and (and (and (and (= x_44 1) ?v_12) ?v_10) ?v_11) ?v_13) ?v_14) (= x_48 x_47)) (= x_100 2)) (= x_38 x_47)) (= x_5 (store x_4 x_47 3)))) (and (and (and (and (and (and (and (and (and (= x_44 2) ?v_12) (= x_40 (+ x_27 1))) ?v_11) ?v_13) ?v_14) (= x_50 x_49)) (= x_101 3)) (or (not (<= x_30 12)) (= x_38 x_49))) (= x_5 (store x_4 x_49 1)))) (and (and (and (and (and (= x_44 3) ?v_13) ?v_10) ?v_11) (= x_5 x_4)) ?v_14))) (= x_30 (+ x_16 1))) (= x_102 (select x_3 x_32))) (= x_103 (select x_3 x_34))) (= x_104 (select x_3 x_36))) (or (or (or (and (and (and (and (and (and (and (= x_31 0) (= x_29 (+ x_14 1))) ?v_15) ?v_16) (= x_33 x_32)) (= x_102 1)) (= x_4 (store x_3 x_32 2))) (= x_26 (store x_10 x_14 x_32))) (and (and (and (and (and (and (and (and (and (= x_31 1) ?v_17) ?v_15) ?v_16) ?v_18) ?v_19) (= x_35 x_34)) (= x_103 2)) (= x_25 x_34)) (= x_4 (store x_3 x_34 3)))) (and (and (and (and (and (and (and (and (and (= x_31 2) ?v_17) (= x_27 (+ x_11 1))) ?v_16) ?v_18) ?v_19) (= x_37 x_36)) (= x_104 3)) (or (not (<= x_16 12)) (= x_25 x_36))) (= x_4 (store x_3 x_36 1)))) (and (and (and (and (and (= x_31 3) ?v_18) ?v_15) ?v_16) (= x_4 x_3)) ?v_19))) (= x_16 (+ x_17 1))) (= x_105 (select x_0 x_19))) (= x_106 (select x_0 x_21))) (= x_107 (select x_0 x_23))) (or (or (or (and (and (and (and (and (and (and (= x_18 0) (= x_14 (+ x_15 1))) ?v_20) ?v_21) (= x_20 x_19)) (= x_105 1)) (= x_3 (store x_0 x_19 2))) (= x_10 (store x_7 x_15 x_19))) (and (and (and (and (and (and (and (and (and (= x_18 1) ?v_22) ?v_20) ?v_21) ?v_23) ?v_24) (= x_22 x_21)) (= x_106 2)) (= x_9 x_21)) (= x_3 (store x_0 x_21 3)))) (and (and (and (and (and (and (and (and (and (= x_18 2) ?v_22) (= x_11 (+ x_8 1))) ?v_21) ?v_23) ?v_24) (= x_24 x_23)) (= x_107 3)) (or (not (<= x_17 12)) (= x_9 x_23))) (= x_3 (store x_0 x_23 1)))) (and (and (and (and (and (= x_18 3) ?v_23) ?v_20) ?v_21) (= x_3 x_0)) ?v_24))) (= x_108 (select x_73 x_1))) (= x_108 3)) (= x_109 (select x_73 x_2))) (= x_109 3))))
; --- Injected Array Sum Constraint ---
(assert (sum x_65 (+ x_72 (+ x_25 x_50))))
(assert (sum x_26 (+ x_87 (+ x_103 x_19))))
(assert (sum x_6 (+ x_24 (+ x_90 x_76))))
(assert (sum x_7 (+ x_30 (+ x_76 x_48))))
(assert (sum x_4 (+ x_29 (+ x_107 x_84))))
(check-sat)
(exit)